90 
300 
19.1 24.3 0 0
18.2 24 0 -74
12.6 24.9 -20 -64
14.4 28 -20 -72
16.9 28.1 -20 -121
20.7 28.2 20 -19
12.5 26.6 -20 -70
21.8 27.3 20 -27
12.5 22.6 20 -17
22.5 17 30 -23
19.9 15 -30 -77
14.9 15.1 30 -12
11.5 18.6 -30 -132
12.4 29.8 -30 -107
17.8 28.1 30 -13
9.1 29.8 40 -26
10 32.6 -40 -105
13.9 33.1 40 -17
19.95 10.3 -40 -124
15.2 8 40 -14
14.7 31.2 -50 -93
7.4 36.5 -50 -101
21 25.5 50 -19
18 25.3 -10 -90
19.5 24.7 10 -19
21.4 21.8 -10 -73
16 21.4 10 -16
18.65 26.2 10 -14
17.9 28.9 -10 -116
14.3 19.9 -20 -115
17 19 20 -29
10.8 21 -20 -138
15.7 23.7 10 -24
